(set-logic QF_SLIA)
(declare-const result String)
(declare-const attack String)
(declare-const prefix RegLan)
(declare-const infix RegLan)
(declare-const postfix RegLan)
(declare-const postfixs String)

(assert (str.in_re attack (re.++ prefix ((_ re.loop 512 512) infix) postfix)))
(assert (= prefix 
     (str.to_re "\u{22}")
))
(assert (= infix 
         (str.to_re "\u{0c}")
))
(assert (= postfix 
         (str.to_re "\u{41}")
))
(assert (str.in_re postfixs postfix))
(assert (>= (str.len postfixs) 1))
(assert (= result (str.++ attack postfixs)))
(check-sat)
(get-model)